proyfinal/src/viki/013/experimentInOfficeAgust.take6.output/697d5742-4956-4b0b-bd9b-1a5df1c837fe.als.out
Reading from standard input... Use '--help' for help.
============================[ Problem Statistics ]=============================
|                                                                             |
|  Number of variables:         87638                                         |
|  Number of clauses:          161767                                         |
|  Parse time:                   0.04 s                                       |
|                                                                             |
============================[ Search Statistics ]==============================
| Conflicts |          ORIGINAL         |          LEARNT          | Progress |
|           |    Vars  Clauses Literals |    Limit  Clauses Lit/Cl |          |
===============================================================================
|       100 |   63204   108093   270305 |    39634      100     41 | 27.881 % |
|       250 |   63204   108093   270305 |    43597      250     65 | 27.881 % |
|       475 |   63204   108093   270305 |    47957      475     66 | 27.881 % |
|       812 |   49398    69692   175529 |    52752      797     64 | 43.634 % |
|      1318 |   49212    68555   172770 |    58028     1291     61 | 43.846 % |
|      2077 |   48842    66706   168243 |    63831     2038     60 | 44.268 % |
|      3216 |   48732    66278   167212 |    70214     3166     58 | 44.394 % |
|      4924 |   48039    64408   162552 |    77235     4855     53 | 45.185 % |
|      7486 |   47875    63175   159663 |    84959     7407     47 | 45.372 % |
===============================================================================
restarts              : 46
conflicts             : 10973          (7744 /sec)
decisions             : 35283          (0.00 % random) (24900 /sec)
propagations          : 16093438       (11357546 /sec)
conflict literals     : 472448         (43.79 % deleted)
Memory used           : 27.95 MB
CPU time              : 1.41698 s

UNSATISFIABLE
